clingo version 5.7.1
Reading from campionato.cl
Solving...
Answer: 1
partita(roma,napoli,6) partita(atalanta,napoli,10) partita(lazio,napoli,5) partita(juventus,napoli,38) partita(torino,napoli,7) partita(salernitana,napoli,1) partita(bologna,napoli,3) partita(cagliari,napoli,21) partita(empoli,napoli,32) partita(fiorentina,napoli,8) partita(frosinone,napoli,16) partita(genoa,napoli,31) partita(hellas_verona,napoli,17) partita(inter,napoli,33) partita(milan,napoli,25) partita(lecce,napoli,30) partita(monza,napoli,19) partita(sassuolo,napoli,22) partita(udinese,napoli,35) partita(napoli,roma,20) partita(atalanta,roma,37) partita(lazio,roma,34) partita(juventus,roma,28) partita(torino,roma,9) partita(salernitana,roma,18) partita(bologna,roma,16) partita(cagliari,roma,17) partita(empoli,roma,8) partita(fiorentina,roma,12) partita(frosinone,roma,38) partita(genoa,roma,30) partita(hellas_verona,roma,21) partita(inter,roma,13) partita(milan,roma,3) partita(lecce,roma,22) partita(monza,roma,29) partita(sassuolo,roma,26) partita(udinese,roma,5) partita(napoli,atalanta,24) partita(roma,atalanta,23) partita(lazio,atalanta,12) partita(juventus,atalanta,22) partita(torino,atalanta,13) partita(salernitana,atalanta,3) partita(bologna,atalanta,6) partita(cagliari,atalanta,29) partita(empoli,atalanta,9) partita(fiorentina,atalanta,16) partita(frosinone,atalanta,21) partita(genoa,atalanta,26) partita(hellas_verona,atalanta,11) partita(inter,atalanta,17) partita(milan,atalanta,31) partita(lecce,atalanta,33) partita(monza,atalanta,15) partita(sassuolo,atalanta,28) partita(udinese,atalanta,19) partita(napoli,lazio,23) partita(roma,lazio,19) partita(atalanta,lazio,32) partita(juventus,lazio,33) partita(torino,lazio,14) partita(salernitana,lazio,27) partita(bologna,lazio,36) partita(cagliari,lazio,2) partita(empoli,lazio,6) partita(fiorentina,lazio,1) partita(frosinone,lazio,25) partita(genoa,lazio,10) partita(hellas_verona,lazio,35) partita(inter,lazio,4) partita(milan,lazio,24) partita(lecce,lazio,31) partita(monza,lazio,11) partita(sassuolo,lazio,7) partita(udinese,lazio,15) partita(napoli,juventus,12) partita(roma,juventus,2) partita(atalanta,juventus,25) partita(lazio,juventus,29) partita(torino,juventus,6) partita(salernitana,juventus,23) partita(bologna,juventus,19) partita(cagliari,juventus,20) partita(empoli,juventus,13) partita(fiorentina,juventus,11) partita(frosinone,juventus,37) partita(genoa,juventus,7) partita(hellas_verona,juventus,24) partita(inter,juventus,18) partita(milan,juventus,27) partita(lecce,juventus,9) partita(monza,juventus,14) partita(sassuolo,juventus,30) partita(udinese,juventus,1) partita(napoli,torino,4) partita(roma,torino,36) partita(atalanta,torino,34) partita(lazio,torino,38) partita(juventus,torino,35) partita(salernitana,torino,26) partita(bologna,torino,28) partita(cagliari,torino,31) partita(empoli,torino,22) partita(fiorentina,torino,10) partita(frosinone,torino,15) partita(genoa,torino,17) partita(hellas_verona,torino,33) partita(inter,torino,8) partita(milan,torino,5) partita(lecce,torino,16) partita(monza,torino,32) partita(sassuolo,torino,21) partita(udinese,torino,3) partita(napoli,salernitana,28) partita(roma,salernitana,15) partita(atalanta,salernitana,38) partita(lazio,salernitana,13) partita(juventus,salernitana,31) partita(torino,salernitana,20) partita(bologna,salernitana,7) partita(cagliari,salernitana,25) partita(empoli,salernitana,35) partita(fiorentina,salernitana,24) partita(frosinone,salernitana,29) partita(genoa,salernitana,14) partita(hellas_verona,salernitana,5) partita(inter,salernitana,34) partita(milan,salernitana,10) partita(lecce,salernitana,2) partita(monza,salernitana,9) partita(sassuolo,salernitana,17) partita(udinese,salernitana,32) partita(napoli,bologna,26) partita(roma,bologna,1) partita(atalanta,bologna,30) partita(lazio,bologna,37) partita(juventus,bologna,5) partita(torino,bologna,11) partita(salernitana,bologna,21) partita(cagliari,bologna,4) partita(empoli,bologna,2) partita(fiorentina,bologna,14) partita(frosinone,bologna,9) partita(genoa,bologna,20) partita(hellas_verona,bologna,12) partita(inter,bologna,32) partita(milan,bologna,35) partita(lecce,bologna,13) partita(monza,bologna,23) partita(sassuolo,bologna,8) partita(udinese,bologna,31) partita(napoli,cagliari,14) partita(roma,cagliari,33) partita(atalanta,cagliari,18) partita(lazio,cagliari,28) partita(juventus,cagliari,16) partita(torino,cagliari,12) partita(salernitana,cagliari,8) partita(bologna,cagliari,24) partita(empoli,cagliari,30) partita(fiorentina,cagliari,22) partita(frosinone,cagliari,3) partita(genoa,cagliari,37) partita(hellas_verona,cagliari,32) partita(inter,cagliari,26) partita(milan,cagliari,11) partita(lecce,cagliari,10) partita(monza,cagliari,7) partita(sassuolo,cagliari,27) partita(udinese,cagliari,9) partita(napoli,empoli,15) partita(roma,empoli,24) partita(atalanta,empoli,36) partita(lazio,empoli,18) partita(juventus,empoli,21) partita(torino,empoli,25) partita(salernitana,empoli,19) partita(bologna,empoli,27) partita(cagliari,empoli,34) partita(fiorentina,empoli,5) partita(frosinone,empoli,33) partita(genoa,empoli,1) partita(hellas_verona,empoli,3) partita(inter,empoli,16) partita(milan,empoli,14) partita(lecce,empoli,37) partita(monza,empoli,17) partita(sassuolo,empoli,23) partita(udinese,empoli,29) partita(napoli,fiorentina,9) partita(roma,fiorentina,32) partita(atalanta,fiorentina,4) partita(lazio,fiorentina,17) partita(juventus,fiorentina,15) partita(torino,fiorentina,19) partita(salernitana,fiorentina,6) partita(bologna,fiorentina,38) partita(cagliari,fiorentina,35) partita(empoli,fiorentina,20) partita(frosinone,fiorentina,7) partita(genoa,fiorentina,29) partita(hellas_verona,fiorentina,26) partita(inter,fiorentina,36) partita(milan,fiorentina,37) partita(lecce,fiorentina,27) partita(monza,fiorentina,31) partita(sassuolo,fiorentina,25) partita(udinese,fiorentina,28) partita(napoli,frosinone,27) partita(roma,frosinone,10) partita(atalanta,frosinone,8) partita(lazio,frosinone,20) partita(juventus,frosinone,4) partita(torino,frosinone,2) partita(salernitana,frosinone,36) partita(bologna,frosinone,17) partita(cagliari,frosinone,19) partita(empoli,frosinone,26) partita(fiorentina,frosinone,30) partita(genoa,frosinone,12) partita(hellas_verona,frosinone,31) partita(inter,frosinone,1) partita(milan,frosinone,28) partita(lecce,frosinone,18) partita(monza,frosinone,22) partita(sassuolo,frosinone,34) partita(udinese,frosinone,11) partita(napoli,genoa,36) partita(roma,genoa,35) partita(atalanta,genoa,5) partita(lazio,genoa,9) partita(juventus,genoa,8) partita(torino,genoa,27) partita(salernitana,genoa,22) partita(bologna,genoa,25) partita(cagliari,genoa,23) partita(empoli,genoa,11) partita(fiorentina,genoa,2) partita(frosinone,genoa,32) partita(hellas_verona,genoa,38) partita(inter,genoa,6) partita(milan,genoa,21) partita(lecce,genoa,24) partita(monza,genoa,3) partita(sassuolo,genoa,18) partita(udinese,genoa,16) partita(napoli,hellas_verona,18) partita(roma,hellas_verona,27) partita(atalanta,hellas_verona,20) partita(lazio,hellas_verona,8) partita(juventus,hellas_verona,34) partita(torino,hellas_verona,37) partita(salernitana,hellas_verona,30) partita(bologna,hellas_verona,15) partita(cagliari,hellas_verona,13) partita(empoli,hellas_verona,7) partita(fiorentina,hellas_verona,23) partita(frosinone,hellas_verona,14) partita(genoa,hellas_verona,4) partita(inter,hellas_verona,22) partita(milan,hellas_verona,29) partita(lecce,hellas_verona,1) partita(monza,hellas_verona,10) partita(sassuolo,hellas_verona,9) partita(udinese,hellas_verona,2) partita(napoli,inter,37) partita(roma,inter,31) partita(atalanta,inter,35) partita(lazio,inter,3) partita(juventus,inter,10) partita(torino,inter,23) partita(salernitana,inter,11) partita(bologna,inter,29) partita(cagliari,inter,15) partita(empoli,inter,38) partita(fiorentina,inter,21) partita(frosinone,inter,5) partita(genoa,inter,19) partita(hellas_verona,inter,28) partita(milan,inter,9) partita(lecce,inter,25) partita(monza,inter,27) partita(sassuolo,inter,24) partita(udinese,inter,14) partita(napoli,milan,2) partita(roma,milan,7) partita(atalanta,milan,1) partita(lazio,milan,22) partita(juventus,milan,32) partita(torino,milan,30) partita(salernitana,milan,16) partita(bologna,milan,18) partita(cagliari,milan,36) partita(empoli,milan,4) partita(fiorentina,milan,33) partita(frosinone,milan,13) partita(genoa,milan,34) partita(hellas_verona,milan,6) partita(inter,milan,12) partita(lecce,milan,26) partita(monza,milan,8) partita(sassuolo,milan,20) partita(udinese,milan,17) partita(napoli,lecce,11) partita(roma,lecce,14) partita(atalanta,lecce,7) partita(lazio,lecce,21) partita(juventus,lecce,17) partita(torino,lecce,29) partita(salernitana,lecce,4) partita(bologna,lecce,34) partita(cagliari,lecce,38) partita(empoli,lecce,12) partita(fiorentina,lecce,3) partita(frosinone,lecce,23) partita(genoa,lecce,28) partita(hellas_verona,lecce,19) partita(inter,lecce,20) partita(milan,lecce,15) partita(monza,lecce,35) partita(sassuolo,lecce,32) partita(udinese,lecce,36) partita(napoli,monza,34) partita(roma,monza,25) partita(atalanta,monza,2) partita(lazio,monza,26) partita(juventus,monza,36) partita(torino,monza,24) partita(salernitana,monza,37) partita(bologna,monza,33) partita(cagliari,monza,1) partita(empoli,monza,28) partita(fiorentina,monza,18) partita(frosinone,monza,6) partita(genoa,monza,13) partita(hellas_verona,monza,16) partita(inter,monza,30) partita(milan,monza,38) partita(lecce,monza,5) partita(sassuolo,monza,12) partita(udinese,monza,20) partita(napoli,sassuolo,29) partita(roma,sassuolo,11) partita(atalanta,sassuolo,14) partita(lazio,sassuolo,16) partita(juventus,sassuolo,3) partita(torino,sassuolo,1) partita(salernitana,sassuolo,33) partita(bologna,sassuolo,10) partita(cagliari,sassuolo,5) partita(empoli,sassuolo,31) partita(fiorentina,sassuolo,13) partita(frosinone,sassuolo,35) partita(genoa,sassuolo,15) partita(hellas_verona,sassuolo,36) partita(inter,sassuolo,2) partita(milan,sassuolo,19) partita(lecce,sassuolo,6) partita(monza,sassuolo,4) partita(udinese,sassuolo,37) partita(napoli,udinese,13) partita(roma,udinese,4) partita(atalanta,udinese,27) partita(lazio,udinese,30) partita(juventus,udinese,26) partita(torino,udinese,18) partita(salernitana,udinese,12) partita(bologna,udinese,22) partita(cagliari,udinese,6) partita(empoli,udinese,10) partita(fiorentina,udinese,34) partita(frosinone,udinese,24) partita(genoa,udinese,33) partita(hellas_verona,udinese,25) partita(inter,udinese,7) partita(milan,udinese,23) partita(lecce,udinese,8) partita(monza,udinese,21) partita(sassuolo,udinese,38)
SATISFIABLE

Models       : 1+
Calls        : 1
Time         : 1.836s (Solving: 1.53s 1st Model: 1.53s Unsat: 0.00s)
CPU Time     : 1.821s
